
  17    4
  10   10   10   10

   0   0   0   0   0   4 2 4 5 6 
   4  10  10  10  10   3 12 8 3 
   4  10  10  10  10   4 16 11 10 7 
   2  10  10  10  10   4 16 12 11 7 
   2  10  10  10  10   5 16 15 11 10 9 
   6  10  10  10  10   4 16 15 14 11 
   2  10  10  10  10   2 15 9 
  10  10  10  10  10   3 15 14 13 
   9  10  10  10  10   2 14 13 
   5  10  10  10  10   2 14 13 
   8  10  10  10  10   1 13 
   5  10  10  10  10   1 13 
  10  10  10  10  10   1 17
   8  10  10  10  10   1 17
   9  10  10  10  10   1 17
   3  10  10  10  10   1 17
   0   0   0   0   0   0 
